
Gurobi 10.0.3 (linux64, gurobi_cl) logging started Thu Nov  2 11:34:09 2023

Set parameter Username
Set parameter TimeLimit to value 3600
Set parameter LogFile to value "RCPSP_428.log"
Set parameter Threads to value 32
Academic license - for non-commercial use only - expires 2024-10-30
Using license file /home/jrivera6/gurobi-licenses/v1003/compute-0-34/gurobi.lic

Gurobi Optimizer version 10.0.3 build v10.0.3rc0 (linux64)
Copyright (c) 2023, Gurobi Optimization, LLC

Read MPS format model from file RCPSP_428.mps
Reading time = 0.01 seconds
RCPSP_428: 5349 rows, 2080 columns, 17994 nonzeros

CPU model: Intel(R) Xeon(R) Gold 6130 CPU @ 2.10GHz, instruction set [SSE2|AVX|AVX2|AVX512]
Thread count: 32 physical cores, 32 logical processors, using up to 32 threads

Optimize a model with 5349 rows, 2080 columns and 17994 nonzeros
Model fingerprint: 0x13ce1c8a
Variable types: 32 continuous, 2048 integer (2048 binary)
Coefficient statistics:
  Matrix range     [1e+00, 2e+02]
  Objective range  [1e+00, 1e+00]
  Bounds range     [1e+00, 1e+00]
  RHS range        [1e+00, 2e+02]
Presolve removed 3488 rows and 1406 columns
Presolve time: 0.32s
Presolved: 1861 rows, 674 columns, 6033 nonzeros
Variable types: 31 continuous, 643 integer (643 binary)

Root relaxation: objective 6.200000e+01, 260 iterations, 0.00 seconds (0.00 work units)

    Nodes    |    Current Node    |     Objective Bounds      |     Work
 Expl Unexpl |  Obj  Depth IntInf | Incumbent    BestBd   Gap | It/Node Time

     0     0   62.00000    0   12          -   62.00000      -     -    0s
H    0     0                      72.0000000   62.00000  13.9%     -    0s
     0     0   62.00000    0   48   72.00000   62.00000  13.9%     -    0s
H    0     0                      71.0000000   62.00000  12.7%     -    0s
     0     0   62.00000    0   52   71.00000   62.00000  12.7%     -    0s
H    0     0                      67.0000000   62.00000  7.46%     -    0s
H    0     0                      62.0000000   62.00000  0.00%     -    0s
     0     0   62.00000    0   14   62.00000   62.00000  0.00%     -    0s

Cutting planes:
  Gomory: 7
  Cover: 19
  Implied bound: 30
  Clique: 44
  MIR: 55
  StrongCG: 3
  RLT: 37
  Relax-and-lift: 22

Explored 1 nodes (1588 simplex iterations) in 0.74 seconds (0.29 work units)
Thread count was 32 (of 32 available processors)

Solution count 4: 62 67 71 72 

Optimal solution found (tolerance 1.00e-04)
Best objective 6.200000000000e+01, best bound 6.200000000000e+01, gap 0.0000%

Wrote result file 'RCPSP_428.sol'

